5 5
4 5 4 5 1 12 2 9 3 18 5 4 3 2 11 3 12 5 13 3 2 3 5 20 3 8 5 1 18 5 14 2 6 4 12 3 3
6 3 2 8 3 11 1 16 4 1 13 3 6 2 6 4 5 4 3 17 2 16 1 6 4 20 3 2 16 4 6 3 4 3 3 19 1 10 4 13 5 2 8 5 4 1 9 4 18 3 4
7 4 4 11 2 8 5 16 1 4 5 4 15 2 13 3 20 1 2 5 10 5 1 13 5 13 2 20 3 12 4 2 3 3 20 5 3 2 2 1 4 18 4 3 12 2 7 5 11 1 2 2 2 7 3 19
4 5 5 3 4 16 1 12 2 6 3 3 3 5 11 3 18 4 10 2 1 20 5 12 2 5 14 1 14
4 4 1 14 4 13 5 4 3 18 1 4 14 4 1 15 2 19 4 9 3 20 5 2 4 5 16 3 13 4 11 1 20